c b=6,c=639
p cnf 22 181
1 2 3 4 5 6 -12 0
1 2 3 4 5 6 -13 0
2 3 4 5 6 -14 0
1 3 4 5 6 -15 0
1 2 4 5 6 -16 0
1 2 3 5 6 -17 0
1 2 3 4 6 -18 0
2 3 6 -21 0
1 2 3 4 5 -6 12 0
-6 13 0
1 -6 14 0
1 2 -6 15 0
2 3 -6 16 0
1 3 4 -6 17 0
1 2 4 5 -6 18 0
3 4 -6 21 0
1 2 3 4 5 -11 0
1 2 3 4 5 -19 0
1 4 5 -20 0
-5 6 12 0
3 4 6 -19 0
-5 -6 -12 0
3 4 -5 -6 19 0
1 2 3 4 -5 11 0
-5 13 0
1 -5 14 0
1 2 -5 15 0
2 3 -5 16 0
1 3 4 -5 17 0
1 2 4 -5 -18 0
3 4 -5 20 0
1 2 3 4 -10 0
3 4 -22 0
-4 6 12 0
2 3 -4 6 19 0
1 2 5 6 -20 0
-4 -6 -12 0
2 3 -4 -6 -19 0
-4 5 -6 20 0
5 -6 21 0
-4 5 11 0
2 3 -4 5 -18 0
5 -22 0
2 3 -5 6 20 0
6 -22 0
-4 -5 -6 -20 0
-4 -5 -6 22 0
-4 -5 -11 0
2 3 -4 -5 18 0
2 3 -4 -5 -21 0
1 2 3 -4 10 0
-4 13 0
1 -4 14 0
1 2 -4 15 0
2 3 -4 16 0
1 3 -4 -17 0
1 2 3 -9 0
-3 6 12 0
1 4 5 6 -19 0
4 6 -21 0
-3 -6 -12 0
1 -3 4 5 -6 19 0
-3 5 11 0
1 2 -3 5 18 0
-3 4 -5 6 19 0
4 -5 6 20 0
-3 4 -5 -6 -19 0
1 -3 4 -6 -20 0
-3 -5 -6 22 0
-3 -5 -11 0
1 2 -3 -5 -18 0
-3 4 -5 -21 0
-3 4 10 0
1 2 -3 4 -17 0
1 2 -4 5 6 19 0
1 2 -3 -4 6 -20 0
5 6 -21 0
1 2 -4 5 -6 -19 0
-3 -4 -5 6 -19 0
-3 -4 -5 6 21 0
-3 -4 -5 -6 19 0
-3 -5 -6 -21 0
-3 -4 -5 -20 0
-3 -4 -10 0
1 2 -3 -4 17 0
1 2 -3 9 0
-3 13 0
1 -3 14 0
1 2 -3 15 0
2 -3 -16 0
1 2 -8 0
-2 6 12 0
-2 -6 -12 0
-2 3 4 -6 19 0
-2 5 11 0
-2 3 4 5 -18 0
-2 -5 -11 0
-2 3 4 -5 18 0
-2 4 10 0
1 -2 4 17 0
3 -4 5 6 19 0
-2 3 -4 6 -20 0
3 -4 5 -6 -19 0
-2 3 -4 5 18 0
-2 3 -5 6 -19 0
-2 -4 -5 6 21 0
-2 3 -5 -6 19 0
1 -4 -5 -6 -21 0
-2 3 -4 -5 -18 0
-2 -4 -5 -20 0
-2 -4 -10 0
1 -2 -4 -17 0
-2 3 9 0
1 -2 3 -16 0
1 -2 -3 5 6 -19 0
1 -2 -3 5 -6 19 0
1 -3 4 5 18 0
1 -3 4 -5 -18 0
-2 -3 -4 6 -19 0
-2 -3 -4 -6 19 0
-2 -3 -4 5 -18 0
-2 -3 -4 5 20 0
-2 -3 -4 -5 18 0
-2 -3 -9 0
1 -2 -3 16 0
1 -2 8 0
-2 13 0
1 -2 14 0
1 -2 -15 0
1 -7 0
-1 6 12 0
-1 -6 -12 0
-1 3 4 -6 19 0
-1 5 11 0
-1 2 3 5 -18 0
2 4 5 -20 0
-1 -5 -11 0
-1 2 3 -5 18 0
-1 4 10 0
-1 2 3 4 -17 0
2 3 5 6 -20 0
-1 -4 -10 0
-1 2 3 -4 17 0
-1 3 9 0
-1 3 16 0
-1 2 -3 5 6 -19 0
-1 2 -3 5 -6 19 0
2 -3 4 5 18 0
2 -3 4 -6 -20 0
2 -3 4 -5 -18 0
-1 2 -3 4 17 0
-1 -3 -4 6 -19 0
-1 -3 -4 -6 19 0
-1 2 -4 5 -18 0
-1 -3 -4 5 20 0
-1 2 -4 -5 18 0
-1 2 -3 -4 -17 0
-1 -3 -9 0
-1 -3 -16 0
-1 2 8 0
-1 2 -15 0
-1 -2 4 5 -18 0
3 4 5 -20 0
-1 -2 4 -5 18 0
-2 3 4 17 0
-2 -4 -5 -6 -21 0
-2 3 -4 -17 0
-1 -2 -3 4 6 19 0
4 5 6 -20 0
-1 -2 -3 4 -6 -19 0
-1 -2 -3 5 -6 20 0
-1 -2 -3 5 -18 0
-1 -2 -3 -5 -6 -20 0
-1 -2 -3 -5 18 0
-1 -2 -3 4 -17 0
-1 -2 -3 -4 17 0
-1 -2 -8 0
-1 -2 15 0
-1 7 0
-1 13 0
-1 -14 0
